benchmark/results/graph__15-1000-0.10-03_15/graph__15-1000-0.10-03_15_Quinton_Benders_primal_sub.lp
\ This file has been generated by DOcplex
\ ENCODING=ISO-8859-1
\Problem name: Quinton Benders_primal_sub

Maximize
 obj: tau
Subject To
 c1: tau <= 0.001782531194
 c2: y_a0_proc_0 + y_a0_proc_1 + y_a0_proc_2 - tau = 0
 c3: y_a0_proc_0 <= 1
 c4: y_a0_proc_1 <= 0
 c5: y_a0_proc_2 <= 0
 c6: tau <= 0.001400560224
 c7: y_a1_proc_1 + y_a1_proc_2 - tau = 0
 c8: y_a1_proc_1 <= 1
 c9: y_a1_proc_2 <= 0
 c10: tau <= 0.001002004008
 c11: y_a2_proc_0 + y_a2_proc_1 + y_a2_proc_2 - tau = 0
 c12: y_a2_proc_0 <= 0
 c13: y_a2_proc_1 <= 1
 c14: y_a2_proc_2 <= 0
 c15: tau <= 0.001536098310
 c16: y_a3_proc_0 + y_a3_proc_1 - tau = 0
 c17: y_a3_proc_0 <= 1
 c18: y_a3_proc_1 <= 0
 c19: tau <= 0.001288659794
 c20: y_a4_proc_0 + y_a4_proc_1 + y_a4_proc_2 - tau = 0
 c21: y_a4_proc_0 <= 0
 c22: y_a4_proc_1 <= 1
 c23: y_a4_proc_2 <= 0
 c24: tau <= 0.001128668172
 c25: y_a5_proc_0 + y_a5_proc_1 + y_a5_proc_2 - tau = 0
 c26: y_a5_proc_0 <= 0
 c27: y_a5_proc_1 <= 1
 c28: y_a5_proc_2 <= 0
 c29: tau <= 0.001636661211
 c30: y_a6_proc_2 - tau = 0
 c31: y_a6_proc_2 <= 1
 c32: tau <= 0.000829187396
 c33: y_a7_proc_0 + y_a7_proc_2 - tau = 0
 c34: y_a7_proc_0 <= 1
 c35: y_a7_proc_2 <= 0
 c36: tau <= 0.001285347044
 c37: y_a8_proc_0 + y_a8_proc_1 + y_a8_proc_2 - tau = 0
 c38: y_a8_proc_0 <= 0
 c39: y_a8_proc_1 <= 0
 c40: y_a8_proc_2 <= 1
 c41: tau <= 0.001158748552
 c42: y_a9_proc_0 + y_a9_proc_1 + y_a9_proc_2 - tau = 0
 c43: y_a9_proc_0 <= 0
 c44: y_a9_proc_1 <= 1
 c45: y_a9_proc_2 <= 0
 c46: tau <= 0.000869565217
 c47: y_a10_proc_1 + y_a10_proc_2 - tau = 0
 c48: y_a10_proc_1 <= 0
 c49: y_a10_proc_2 <= 1
 c50: tau <= 0.001347708895
 c51: y_a11_proc_0 + y_a11_proc_2 - tau = 0
 c52: y_a11_proc_0 <= 1
 c53: y_a11_proc_2 <= 0
 c54: tau <= 0.002976190476
 c55: y_a12_proc_0 + y_a12_proc_1 + y_a12_proc_2 - tau = 0
 c56: y_a12_proc_0 <= 0
 c57: y_a12_proc_1 <= 1
 c58: y_a12_proc_2 <= 0
 c59: tau <= 0.001096491228
 c60: y_a13_proc_0 + y_a13_proc_1 + y_a13_proc_2 - tau = 0
 c61: y_a13_proc_0 <= 0
 c62: y_a13_proc_1 <= 1
 c63: y_a13_proc_2 <= 0
 c64: tau <= 0.001058201058
 c65: y_a14_proc_0 + y_a14_proc_1 - tau = 0
 c66: y_a14_proc_0 <= 1
 c67: y_a14_proc_1 <= 0
 c68: u_a0 - u_a1 - 714 y_a1_proc_1 - 1056 y_a1_proc_2 >= 0
 c69: u_a1 - u_a2 - 1047 y_a2_proc_0 - 998 y_a2_proc_1 - 1061 y_a2_proc_2 >= 0
 c70: u_a3 - u_a1 - 714 y_a1_proc_1 - 1056 y_a1_proc_2 >= -1
 c71: u_a3 - u_a4 - 1136 y_a4_proc_0 - 776 y_a4_proc_1 - 1031 y_a4_proc_2 >= 0
 c72: u_a5 - u_a2 - 1047 y_a2_proc_0 - 998 y_a2_proc_1 - 1061 y_a2_proc_2 >= 0
 c73: u_a4 - u_a6 - 611 y_a6_proc_2 >= 0
 c74: u_a7 - u_a3 - 651 y_a3_proc_0 - 944 y_a3_proc_1 >= 0
 c75: u_a8 - u_a6 - 611 y_a6_proc_2 >= 0
 c76: u_a9 - u_a0 - 561 y_a0_proc_0 - 999 y_a0_proc_1 - 808 y_a0_proc_2 >= 0
 c77: u_a10 - u_a2 - 1047 y_a2_proc_0 - 998 y_a2_proc_1 - 1061 y_a2_proc_2 >= 0
 c78: u_a11 - u_a10 - 605 y_a10_proc_1 - 1150 y_a10_proc_2 >= -1
 c79: u_a12 - u_a11 - 742 y_a11_proc_0 - 437 y_a11_proc_2 >= 0
 c80: u_a13 - u_a3 - 651 y_a3_proc_0 - 944 y_a3_proc_1 >= 0
 c81: u_a14 - u_a10 - 605 y_a10_proc_1 - 1150 y_a10_proc_2 >= -1
 c82: u_a7 - u_a8 - 822 y_a8_proc_0 - 916 y_a8_proc_1 - 778 y_a8_proc_2 >= 0
 c83: u_a11 - u_a14 - 945 y_a14_proc_0 - 1034 y_a14_proc_1 >= 0
 c84: u_a14 - u_a8 - 822 y_a8_proc_0 - 916 y_a8_proc_1 - 778 y_a8_proc_2 >= -1
 c85: u_a4 - u_a5 - 1196 y_a5_proc_0 - 886 y_a5_proc_1 - 901 y_a5_proc_2 >= -1
 c86: u_a11 - u_a7 - 1206 y_a7_proc_0 - 889 y_a7_proc_2 >= -1
 c87: u_a6 - u_a13 - 1006 y_a13_proc_0 - 912 y_a13_proc_1 - 960 y_a13_proc_2
       >= -1
 c88: u_a14 - u_a13 - 1006 y_a13_proc_0 - 912 y_a13_proc_1 - 960 y_a13_proc_2
       >= -1
 c89: u_a2 - u_a14 - 945 y_a14_proc_0 - 1034 y_a14_proc_1 >= 0
 c90: u_a6 - u_a12 - 951 y_a12_proc_0 - 336 y_a12_proc_1 - 954 y_a12_proc_2 >= 
      0
 c91: u_a13 - u_a9 - 756 y_a9_proc_0 - 863 y_a9_proc_1 - 1199 y_a9_proc_2 >= 0
 c92: u_a1 - u_a8 - 822 y_a8_proc_0 - 916 y_a8_proc_1 - 778 y_a8_proc_2 >= -1
 c93: u_a1 - u_a0 - 808 y_a0_proc_2 >= -1207
 c94: u_a1 - u_a0 - 999 y_a0_proc_1 >= -1
 c95: u_a0 - u_a1 - 1056 y_a1_proc_2 >= -3618
 c96: u_a0 - u_a1 - 714 y_a1_proc_1 >= -2412
 c97: u_a2 - u_a0 - 808 y_a0_proc_2 >= -3619
 c98: u_a2 - u_a0 - 561 y_a0_proc_0 >= -2413
 c99: u_a2 - u_a0 - 999 y_a0_proc_1 >= -2413
 c100: u_a0 - u_a2 - 1061 y_a2_proc_2 >= -1206
 c101: u_a0 - u_a2 - 1047 y_a2_proc_0 >= 0
 c102: u_a0 - u_a2 - 998 y_a2_proc_1 >= 0
 c103: u_a3 - u_a0 - 561 y_a0_proc_0 >= 0
 c104: u_a3 - u_a0 - 999 y_a0_proc_1 >= -2412
 c105: u_a0 - u_a3 - 651 y_a3_proc_0 >= -1
 c106: u_a0 - u_a3 - 944 y_a3_proc_1 >= -2413
 c107: u_a4 - u_a0 - 808 y_a0_proc_2 >= -3618
 c108: u_a4 - u_a0 - 561 y_a0_proc_0 >= -2412
 c109: u_a4 - u_a0 - 999 y_a0_proc_1 >= -2412
 c110: u_a0 - u_a4 - 1031 y_a4_proc_2 >= -1207
 c111: u_a0 - u_a4 - 1136 y_a4_proc_0 >= -1
 c112: u_a0 - u_a4 - 776 y_a4_proc_1 >= -1
 c113: u_a5 - u_a0 - 808 y_a0_proc_2 >= -3619
 c114: u_a5 - u_a0 - 561 y_a0_proc_0 >= -2413
 c115: u_a5 - u_a0 - 999 y_a0_proc_1 >= -2413
 c116: u_a0 - u_a5 - 901 y_a5_proc_2 >= -1206
 c117: u_a0 - u_a5 - 1196 y_a5_proc_0 >= 0
 c118: u_a0 - u_a5 - 886 y_a5_proc_1 >= 0
 c119: u_a6 - u_a0 - 808 y_a0_proc_2 >= -2412
 c120: u_a0 - u_a6 - 611 y_a6_proc_2 >= -1
 c121: u_a7 - u_a0 - 808 y_a0_proc_2 >= -2412
 c122: u_a7 - u_a0 - 561 y_a0_proc_0 >= 0
 c123: u_a0 - u_a7 - 889 y_a7_proc_2 >= -2413
 c124: u_a0 - u_a7 - 1206 y_a7_proc_0 >= -1
 c125: u_a8 - u_a0 - 808 y_a0_proc_2 >= -2412
 c126: u_a8 - u_a0 - 561 y_a0_proc_0 >= -2412
 c127: u_a8 - u_a0 - 999 y_a0_proc_1 >= -3618
 c128: u_a0 - u_a8 - 778 y_a8_proc_2 >= -1
 c129: u_a0 - u_a8 - 822 y_a8_proc_0 >= -1
 c130: u_a0 - u_a8 - 916 y_a8_proc_1 >= -1207
 c131: u_a9 - u_a0 - 808 y_a0_proc_2 >= -3618
 c132: u_a9 - u_a0 - 561 y_a0_proc_0 >= -2412
 c133: u_a9 - u_a0 - 999 y_a0_proc_1 >= -2412
 c134: u_a0 - u_a9 - 1199 y_a9_proc_2 >= -1207
 c135: u_a0 - u_a9 - 756 y_a9_proc_0 >= -1
 c136: u_a0 - u_a9 - 863 y_a9_proc_1 >= -1
 c137: u_a10 - u_a0 - 808 y_a0_proc_2 >= -2412
 c138: u_a10 - u_a0 - 999 y_a0_proc_1 >= -3618
 c139: u_a0 - u_a10 - 1150 y_a10_proc_2 >= -1
 c140: u_a0 - u_a10 - 605 y_a10_proc_1 >= -1207
 c141: u_a11 - u_a0 - 808 y_a0_proc_2 >= -2413
 c142: u_a11 - u_a0 - 561 y_a0_proc_0 >= -1
 c143: u_a0 - u_a11 - 437 y_a11_proc_2 >= -2412
 c144: u_a0 - u_a11 - 742 y_a11_proc_0 >= 0
 c145: u_a12 - u_a0 - 808 y_a0_proc_2 >= -3618
 c146: u_a12 - u_a0 - 561 y_a0_proc_0 >= -2412
 c147: u_a12 - u_a0 - 999 y_a0_proc_1 >= -2412
 c148: u_a0 - u_a12 - 954 y_a12_proc_2 >= -1207
 c149: u_a0 - u_a12 - 951 y_a12_proc_0 >= -1
 c150: u_a0 - u_a12 - 336 y_a12_proc_1 >= -1
 c151: u_a13 - u_a0 - 808 y_a0_proc_2 >= -3618
 c152: u_a13 - u_a0 - 561 y_a0_proc_0 >= -2412
 c153: u_a13 - u_a0 - 999 y_a0_proc_1 >= -2412
 c154: u_a0 - u_a13 - 960 y_a13_proc_2 >= -1207
 c155: u_a0 - u_a13 - 1006 y_a13_proc_0 >= -1
 c156: u_a0 - u_a13 - 912 y_a13_proc_1 >= -1
 c157: u_a14 - u_a0 - 561 y_a0_proc_0 >= -1
 c158: u_a14 - u_a0 - 999 y_a0_proc_1 >= -2413
 c159: u_a0 - u_a14 - 945 y_a14_proc_0 >= 0
 c160: u_a0 - u_a14 - 1034 y_a14_proc_1 >= -2412
 c161: u_a2 - u_a1 - 1056 y_a1_proc_2 >= -2413
 c162: u_a2 - u_a1 - 714 y_a1_proc_1 >= -1
 c163: u_a1 - u_a2 - 1061 y_a2_proc_2 >= -2412
 c164: u_a1 - u_a2 - 998 y_a2_proc_1 >= 0
 c165: u_a3 - u_a1 - 714 y_a1_proc_1 >= -2412
 c166: u_a1 - u_a3 - 944 y_a3_proc_1 >= -1
 c167: u_a4 - u_a1 - 1056 y_a1_proc_2 >= -2412
 c168: u_a4 - u_a1 - 714 y_a1_proc_1 >= 0
 c169: u_a1 - u_a4 - 1031 y_a4_proc_2 >= -2413
 c170: u_a1 - u_a4 - 776 y_a4_proc_1 >= -1
 c171: u_a5 - u_a1 - 1056 y_a1_proc_2 >= -2413
 c172: u_a5 - u_a1 - 714 y_a1_proc_1 >= -1
 c173: u_a1 - u_a5 - 901 y_a5_proc_2 >= -2412
 c174: u_a1 - u_a5 - 886 y_a5_proc_1 >= 0
 c175: u_a6 - u_a1 - 1056 y_a1_proc_2 >= -2412
 c176: u_a1 - u_a6 - 611 y_a6_proc_2 >= -1
 c177: u_a7 - u_a1 - 1056 y_a1_proc_2 >= -4823
 c178: u_a1 - u_a7 - 889 y_a7_proc_2 >= -2
 c179: u_a8 - u_a1 - 1056 y_a1_proc_2 >= 0
 c180: u_a8 - u_a1 - 714 y_a1_proc_1 >= 0
 c181: u_a1 - u_a8 - 778 y_a8_proc_2 >= -2413
 c182: u_a1 - u_a8 - 916 y_a8_proc_1 >= -2413
 c183: u_a9 - u_a1 - 1056 y_a1_proc_2 >= -2412
 c184: u_a9 - u_a1 - 714 y_a1_proc_1 >= 0
 c185: u_a1 - u_a9 - 1199 y_a9_proc_2 >= -2413
 c186: u_a1 - u_a9 - 863 y_a9_proc_1 >= -1
 c187: u_a10 - u_a1 - 1056 y_a1_proc_2 >= -1266
 c188: u_a10 - u_a1 - 714 y_a1_proc_1 >= -1266
 c189: u_a1 - u_a10 - 1150 y_a10_proc_2 >= -1147
 c190: u_a1 - u_a10 - 605 y_a10_proc_1 >= -1147
 c191: u_a11 - u_a1 - 1056 y_a1_proc_2 >= -4825
 c192: u_a1 - u_a11 - 437 y_a11_proc_2 >= 0
 c193: u_a12 - u_a1 - 1056 y_a1_proc_2 >= -2412
 c194: u_a12 - u_a1 - 714 y_a1_proc_1 >= 0
 c195: u_a1 - u_a12 - 954 y_a12_proc_2 >= -2413
 c196: u_a1 - u_a12 - 336 y_a12_proc_1 >= -1
 c197: u_a13 - u_a1 - 1056 y_a1_proc_2 >= -2412
 c198: u_a13 - u_a1 - 714 y_a1_proc_1 >= 0
 c199: u_a1 - u_a13 - 960 y_a13_proc_2 >= -2413
 c200: u_a1 - u_a13 - 912 y_a13_proc_1 >= -1
 c201: u_a14 - u_a1 - 714 y_a1_proc_1 >= -2413
 c202: u_a1 - u_a14 - 1034 y_a14_proc_1 >= 0
 c203: u_a3 - u_a2 - 1047 y_a2_proc_0 >= -2412
 c204: u_a3 - u_a2 - 998 y_a2_proc_1 >= -2412
 c205: u_a2 - u_a3 - 651 y_a3_proc_0 >= -1
 c206: u_a2 - u_a3 - 944 y_a3_proc_1 >= -1
 c207: u_a4 - u_a2 - 1061 y_a2_proc_2 >= -2412
 c208: u_a4 - u_a2 - 1047 y_a2_proc_0 >= -2412
 c209: u_a4 - u_a2 - 998 y_a2_proc_1 >= 0
 c210: u_a2 - u_a4 - 1031 y_a4_proc_2 >= -2413
 c211: u_a2 - u_a4 - 1136 y_a4_proc_0 >= -2413
 c212: u_a2 - u_a4 - 776 y_a4_proc_1 >= -1
 c213: u_a5 - u_a2 - 1061 y_a2_proc_2 >= -2412
 c214: u_a5 - u_a2 - 1047 y_a2_proc_0 >= -2412
 c215: u_a5 - u_a2 - 998 y_a2_proc_1 >= 0
 c216: u_a2 - u_a5 - 901 y_a5_proc_2 >= -2413
 c217: u_a2 - u_a5 - 1196 y_a5_proc_0 >= -2413
 c218: u_a2 - u_a5 - 886 y_a5_proc_1 >= -1
 c219: u_a6 - u_a2 - 1061 y_a2_proc_2 >= -2412
 c220: u_a2 - u_a6 - 611 y_a6_proc_2 >= -1
 c221: u_a7 - u_a2 - 1061 y_a2_proc_2 >= -1205
 c222: u_a7 - u_a2 - 1047 y_a2_proc_0 >= 1
 c223: u_a2 - u_a7 - 889 y_a7_proc_2 >= -3620
 c224: u_a2 - u_a7 - 1206 y_a7_proc_0 >= -2414
 c225: u_a8 - u_a2 - 1061 y_a2_proc_2 >= 0
 c226: u_a8 - u_a2 - 1047 y_a2_proc_0 >= -1206
 c227: u_a8 - u_a2 - 998 y_a2_proc_1 >= 0
 c228: u_a2 - u_a8 - 778 y_a8_proc_2 >= -2413
 c229: u_a2 - u_a8 - 822 y_a8_proc_0 >= -3619
 c230: u_a2 - u_a8 - 916 y_a8_proc_1 >= -2413
 c231: u_a9 - u_a2 - 1061 y_a2_proc_2 >= -2412
 c232: u_a9 - u_a2 - 1047 y_a2_proc_0 >= -2412
 c233: u_a9 - u_a2 - 998 y_a2_proc_1 >= 0
 c234: u_a2 - u_a9 - 1199 y_a9_proc_2 >= -2413
 c235: u_a2 - u_a9 - 756 y_a9_proc_0 >= -2413
 c236: u_a2 - u_a9 - 863 y_a9_proc_1 >= -1
 c237: u_a10 - u_a2 - 1061 y_a2_proc_2 >= -2412
 c238: u_a10 - u_a2 - 998 y_a2_proc_1 >= -2412
 c239: u_a2 - u_a10 - 1150 y_a10_proc_2 >= -1
 c240: u_a2 - u_a10 - 605 y_a10_proc_1 >= -1
 c241: u_a11 - u_a2 - 1061 y_a2_proc_2 >= -3618
 c242: u_a11 - u_a2 - 1047 y_a2_proc_0 >= -2412
 c243: u_a2 - u_a11 - 437 y_a11_proc_2 >= -1207
 c244: u_a2 - u_a11 - 742 y_a11_proc_0 >= -1
 c245: u_a12 - u_a2 - 1061 y_a2_proc_2 >= -2412
 c246: u_a12 - u_a2 - 1047 y_a2_proc_0 >= -2412
 c247: u_a12 - u_a2 - 998 y_a2_proc_1 >= 0
 c248: u_a2 - u_a12 - 954 y_a12_proc_2 >= -2413
 c249: u_a2 - u_a12 - 951 y_a12_proc_0 >= -2413
 c250: u_a2 - u_a12 - 336 y_a12_proc_1 >= -1
 c251: u_a13 - u_a2 - 1061 y_a2_proc_2 >= -2412
 c252: u_a13 - u_a2 - 1047 y_a2_proc_0 >= -2412
 c253: u_a13 - u_a2 - 998 y_a2_proc_1 >= 0
 c254: u_a2 - u_a13 - 960 y_a13_proc_2 >= -2413
 c255: u_a2 - u_a13 - 1006 y_a13_proc_0 >= -2413
 c256: u_a2 - u_a13 - 912 y_a13_proc_1 >= -1
 c257: u_a14 - u_a2 - 1047 y_a2_proc_0 >= -1
 c258: u_a14 - u_a2 - 998 y_a2_proc_1 >= -1
 c259: u_a2 - u_a14 - 945 y_a14_proc_0 >= -2412
 c260: u_a2 - u_a14 - 1034 y_a14_proc_1 >= -2412
 c261: u_a4 - u_a3 - 651 y_a3_proc_0 >= -2413
 c262: u_a4 - u_a3 - 944 y_a3_proc_1 >= -2413
 c263: u_a3 - u_a4 - 1136 y_a4_proc_0 >= 0
 c264: u_a3 - u_a4 - 776 y_a4_proc_1 >= 0
 c265: u_a5 - u_a3 - 651 y_a3_proc_0 >= -2413
 c266: u_a5 - u_a3 - 944 y_a3_proc_1 >= -2413
 c267: u_a3 - u_a5 - 1196 y_a5_proc_0 >= 0
 c268: u_a3 - u_a5 - 886 y_a5_proc_1 >= 0
 c269: u_a7 - u_a3 - 651 y_a3_proc_0 >= 0
 c270: u_a3 - u_a7 - 1206 y_a7_proc_0 >= -1
 c271: u_a8 - u_a3 - 651 y_a3_proc_0 >= -2413
 c272: u_a8 - u_a3 - 944 y_a3_proc_1 >= -3619
 c273: u_a3 - u_a8 - 822 y_a8_proc_0 >= 0
 c274: u_a3 - u_a8 - 916 y_a8_proc_1 >= -1206
 c275: u_a9 - u_a3 - 651 y_a3_proc_0 >= -2413
 c276: u_a9 - u_a3 - 944 y_a3_proc_1 >= -2413
 c277: u_a3 - u_a9 - 756 y_a9_proc_0 >= 0
 c278: u_a3 - u_a9 - 863 y_a9_proc_1 >= 0
 c279: u_a10 - u_a3 - 944 y_a3_proc_1 >= -4825
 c280: u_a3 - u_a10 - 605 y_a10_proc_1 >= 0
 c281: u_a11 - u_a3 - 651 y_a3_proc_0 >= -1
 c282: u_a3 - u_a11 - 742 y_a11_proc_0 >= 0
 c283: u_a12 - u_a3 - 651 y_a3_proc_0 >= -2413
 c284: u_a12 - u_a3 - 944 y_a3_proc_1 >= -2413
 c285: u_a3 - u_a12 - 951 y_a12_proc_0 >= 0
 c286: u_a3 - u_a12 - 336 y_a12_proc_1 >= 0
 c287: u_a13 - u_a3 - 651 y_a3_proc_0 >= -2412
 c288: u_a13 - u_a3 - 944 y_a3_proc_1 >= -2412
 c289: u_a3 - u_a13 - 1006 y_a13_proc_0 >= -1
 c290: u_a3 - u_a13 - 912 y_a13_proc_1 >= -1
 c291: u_a14 - u_a3 - 651 y_a3_proc_0 >= -1
 c292: u_a14 - u_a3 - 944 y_a3_proc_1 >= -2413
 c293: u_a3 - u_a14 - 945 y_a14_proc_0 >= 0
 c294: u_a3 - u_a14 - 1034 y_a14_proc_1 >= -2412
 c295: u_a5 - u_a4 - 1031 y_a4_proc_2 >= -2413
 c296: u_a5 - u_a4 - 1136 y_a4_proc_0 >= -2413
 c297: u_a5 - u_a4 - 776 y_a4_proc_1 >= -1
 c298: u_a4 - u_a5 - 901 y_a5_proc_2 >= -2412
 c299: u_a4 - u_a5 - 1196 y_a5_proc_0 >= -2412
 c300: u_a4 - u_a5 - 886 y_a5_proc_1 >= 0
 c301: u_a6 - u_a4 - 1031 y_a4_proc_2 >= -2413
 c302: u_a4 - u_a6 - 611 y_a6_proc_2 >= 0
 c303: u_a7 - u_a4 - 1031 y_a4_proc_2 >= -3618
 c304: u_a7 - u_a4 - 1136 y_a4_proc_0 >= -2412
 c305: u_a4 - u_a7 - 889 y_a7_proc_2 >= -1207
 c306: u_a4 - u_a7 - 1206 y_a7_proc_0 >= -1
 c307: u_a8 - u_a4 - 1031 y_a4_proc_2 >= -1889
 c308: u_a8 - u_a4 - 1136 y_a4_proc_0 >= -3095
 c309: u_a8 - u_a4 - 776 y_a4_proc_1 >= -1889
 c310: u_a4 - u_a8 - 778 y_a8_proc_2 >= -524
 c311: u_a4 - u_a8 - 822 y_a8_proc_0 >= -1730
 c312: u_a4 - u_a8 - 916 y_a8_proc_1 >= -524
 c313: u_a9 - u_a4 - 1031 y_a4_proc_2 >= -2413
 c314: u_a9 - u_a4 - 1136 y_a4_proc_0 >= -2413
 c315: u_a9 - u_a4 - 776 y_a4_proc_1 >= -1
 c316: u_a4 - u_a9 - 1199 y_a9_proc_2 >= -2412
 c317: u_a4 - u_a9 - 756 y_a9_proc_0 >= -2412
 c318: u_a4 - u_a9 - 863 y_a9_proc_1 >= 0
 c319: u_a10 - u_a4 - 1031 y_a4_proc_2 >= -2412
 c320: u_a10 - u_a4 - 776 y_a4_proc_1 >= -2412
 c321: u_a4 - u_a10 - 1150 y_a10_proc_2 >= -1
 c322: u_a4 - u_a10 - 605 y_a10_proc_1 >= -1
 c323: u_a11 - u_a4 - 1031 y_a4_proc_2 >= -3619
 c324: u_a11 - u_a4 - 1136 y_a4_proc_0 >= -2413
 c325: u_a4 - u_a11 - 437 y_a11_proc_2 >= -1206
 c326: u_a4 - u_a11 - 742 y_a11_proc_0 >= 0
 c327: u_a12 - u_a4 - 1031 y_a4_proc_2 >= -2413
 c328: u_a12 - u_a4 - 1136 y_a4_proc_0 >= -2413
 c329: u_a12 - u_a4 - 776 y_a4_proc_1 >= -1
 c330: u_a4 - u_a12 - 954 y_a12_proc_2 >= -2412
 c331: u_a4 - u_a12 - 951 y_a12_proc_0 >= -2412
 c332: u_a4 - u_a12 - 336 y_a12_proc_1 >= 0
 c333: u_a13 - u_a4 - 1031 y_a4_proc_2 >= -2412
 c334: u_a13 - u_a4 - 1136 y_a4_proc_0 >= -2412
 c335: u_a13 - u_a4 - 776 y_a4_proc_1 >= 0
 c336: u_a4 - u_a13 - 960 y_a13_proc_2 >= -2413
 c337: u_a4 - u_a13 - 1006 y_a13_proc_0 >= -2413
 c338: u_a4 - u_a13 - 912 y_a13_proc_1 >= -1
 c339: u_a14 - u_a4 - 1136 y_a4_proc_0 >= -2413
 c340: u_a14 - u_a4 - 776 y_a4_proc_1 >= -2413
 c341: u_a4 - u_a14 - 945 y_a14_proc_0 >= 0
 c342: u_a4 - u_a14 - 1034 y_a14_proc_1 >= 0
 c343: u_a6 - u_a5 - 901 y_a5_proc_2 >= -2412
 c344: u_a5 - u_a6 - 611 y_a6_proc_2 >= -1
 c345: u_a7 - u_a5 - 901 y_a5_proc_2 >= -3617
 c346: u_a7 - u_a5 - 1196 y_a5_proc_0 >= -2411
 c347: u_a5 - u_a7 - 889 y_a7_proc_2 >= -1208
 c348: u_a5 - u_a7 - 1206 y_a7_proc_0 >= -2
 c349: u_a8 - u_a5 - 901 y_a5_proc_2 >= -2412
 c350: u_a8 - u_a5 - 1196 y_a5_proc_0 >= -3618
 c351: u_a8 - u_a5 - 886 y_a5_proc_1 >= -2412
 c352: u_a5 - u_a8 - 778 y_a8_proc_2 >= -1
 c353: u_a5 - u_a8 - 822 y_a8_proc_0 >= -1207
 c354: u_a5 - u_a8 - 916 y_a8_proc_1 >= -1
 c355: u_a9 - u_a5 - 901 y_a5_proc_2 >= -2412
 c356: u_a9 - u_a5 - 1196 y_a5_proc_0 >= -2412
 c357: u_a9 - u_a5 - 886 y_a5_proc_1 >= 0
 c358: u_a5 - u_a9 - 1199 y_a9_proc_2 >= -2413
 c359: u_a5 - u_a9 - 756 y_a9_proc_0 >= -2413
 c360: u_a5 - u_a9 - 863 y_a9_proc_1 >= -1
 c361: u_a10 - u_a5 - 901 y_a5_proc_2 >= 0
 c362: u_a10 - u_a5 - 886 y_a5_proc_1 >= 0
 c363: u_a5 - u_a10 - 1150 y_a10_proc_2 >= -2413
 c364: u_a5 - u_a10 - 605 y_a10_proc_1 >= -2413
 c365: u_a11 - u_a5 - 901 y_a5_proc_2 >= -3618
 c366: u_a11 - u_a5 - 1196 y_a5_proc_0 >= -2412
 c367: u_a5 - u_a11 - 437 y_a11_proc_2 >= -1207
 c368: u_a5 - u_a11 - 742 y_a11_proc_0 >= -1
 c369: u_a12 - u_a5 - 901 y_a5_proc_2 >= -2412
 c370: u_a12 - u_a5 - 1196 y_a5_proc_0 >= -2412
 c371: u_a12 - u_a5 - 886 y_a5_proc_1 >= 0
 c372: u_a5 - u_a12 - 954 y_a12_proc_2 >= -2413
 c373: u_a5 - u_a12 - 951 y_a12_proc_0 >= -2413
 c374: u_a5 - u_a12 - 336 y_a12_proc_1 >= -1
 c375: u_a13 - u_a5 - 901 y_a5_proc_2 >= -2412
 c376: u_a13 - u_a5 - 1196 y_a5_proc_0 >= -2412
 c377: u_a13 - u_a5 - 886 y_a5_proc_1 >= 0
 c378: u_a5 - u_a13 - 960 y_a13_proc_2 >= -2413
 c379: u_a5 - u_a13 - 1006 y_a13_proc_0 >= -2413
 c380: u_a5 - u_a13 - 912 y_a13_proc_1 >= -1
 c381: u_a14 - u_a5 - 1196 y_a5_proc_0 >= -1
 c382: u_a14 - u_a5 - 886 y_a5_proc_1 >= -1
 c383: u_a5 - u_a14 - 945 y_a14_proc_0 >= -2412
 c384: u_a5 - u_a14 - 1034 y_a14_proc_1 >= -2412
 c385: u_a7 - u_a6 - 611 y_a6_proc_2 >= -2412
 c386: u_a6 - u_a7 - 889 y_a7_proc_2 >= -1
 c387: u_a8 - u_a6 - 611 y_a6_proc_2 >= 0
 c388: u_a6 - u_a8 - 778 y_a8_proc_2 >= -1
 c389: u_a9 - u_a6 - 611 y_a6_proc_2 >= -2413
 c390: u_a6 - u_a9 - 1199 y_a9_proc_2 >= 0
 c391: u_a10 - u_a6 - 611 y_a6_proc_2 >= 0
 c392: u_a6 - u_a10 - 1150 y_a10_proc_2 >= -1
 c393: u_a11 - u_a6 - 611 y_a6_proc_2 >= -2413
 c394: u_a6 - u_a11 - 437 y_a11_proc_2 >= 0
 c395: u_a12 - u_a6 - 611 y_a6_proc_2 >= -2413
 c396: u_a6 - u_a12 - 954 y_a12_proc_2 >= 0
 c397: u_a13 - u_a6 - 611 y_a6_proc_2 >= -2412
 c398: u_a6 - u_a13 - 960 y_a13_proc_2 >= -1
 c399: u_a8 - u_a7 - 889 y_a7_proc_2 >= -2413
 c400: u_a8 - u_a7 - 1206 y_a7_proc_0 >= -2413
 c401: u_a7 - u_a8 - 778 y_a8_proc_2 >= 0
 c402: u_a7 - u_a8 - 822 y_a8_proc_0 >= 0
 c403: u_a9 - u_a7 - 889 y_a7_proc_2 >= -1783
 c404: u_a9 - u_a7 - 1206 y_a7_proc_0 >= -577
 c405: u_a7 - u_a9 - 1199 y_a9_proc_2 >= -3042
 c406: u_a7 - u_a9 - 756 y_a9_proc_0 >= -1836
 c407: u_a10 - u_a7 - 889 y_a7_proc_2 >= -2
 c408: u_a7 - u_a10 - 1150 y_a10_proc_2 >= -2411
 c409: u_a11 - u_a7 - 889 y_a7_proc_2 >= -2413
 c410: u_a11 - u_a7 - 1206 y_a7_proc_0 >= -1
 c411: u_a7 - u_a11 - 437 y_a11_proc_2 >= -2412
 c412: u_a7 - u_a11 - 742 y_a11_proc_0 >= 0
 c413: u_a12 - u_a7 - 889 y_a7_proc_2 >= -3619
 c414: u_a12 - u_a7 - 1206 y_a7_proc_0 >= -2413
 c415: u_a7 - u_a12 - 954 y_a12_proc_2 >= -1206
 c416: u_a7 - u_a12 - 951 y_a12_proc_0 >= 0
 c417: u_a13 - u_a7 - 889 y_a7_proc_2 >= -3619
 c418: u_a13 - u_a7 - 1206 y_a7_proc_0 >= -2413
 c419: u_a7 - u_a13 - 960 y_a13_proc_2 >= -1206
 c420: u_a7 - u_a13 - 1006 y_a13_proc_0 >= 0
 c421: u_a14 - u_a7 - 1206 y_a7_proc_0 >= -2
 c422: u_a7 - u_a14 - 945 y_a14_proc_0 >= 1
 c423: u_a9 - u_a8 - 778 y_a8_proc_2 >= -2413
 c424: u_a9 - u_a8 - 822 y_a8_proc_0 >= -3619
 c425: u_a9 - u_a8 - 916 y_a8_proc_1 >= -2413
 c426: u_a8 - u_a9 - 1199 y_a9_proc_2 >= 0
 c427: u_a8 - u_a9 - 756 y_a9_proc_0 >= -1206
 c428: u_a8 - u_a9 - 863 y_a9_proc_1 >= 0
 c429: u_a10 - u_a8 - 778 y_a8_proc_2 >= -1
 c430: u_a10 - u_a8 - 916 y_a8_proc_1 >= -2413
 c431: u_a8 - u_a10 - 1150 y_a10_proc_2 >= 0
 c432: u_a8 - u_a10 - 605 y_a10_proc_1 >= -2412
 c433: u_a11 - u_a8 - 778 y_a8_proc_2 >= -2413
 c434: u_a11 - u_a8 - 822 y_a8_proc_0 >= -2413
 c435: u_a8 - u_a11 - 437 y_a11_proc_2 >= 0
 c436: u_a8 - u_a11 - 742 y_a11_proc_0 >= 0
 c437: u_a12 - u_a8 - 778 y_a8_proc_2 >= -2413
 c438: u_a12 - u_a8 - 822 y_a8_proc_0 >= -3619
 c439: u_a12 - u_a8 - 916 y_a8_proc_1 >= -2413
 c440: u_a8 - u_a12 - 954 y_a12_proc_2 >= 0
 c441: u_a8 - u_a12 - 951 y_a12_proc_0 >= -1206
 c442: u_a8 - u_a12 - 336 y_a12_proc_1 >= 0
 c443: u_a13 - u_a8 - 778 y_a8_proc_2 >= 0
 c444: u_a13 - u_a8 - 822 y_a8_proc_0 >= -1206
 c445: u_a13 - u_a8 - 916 y_a8_proc_1 >= 0
 c446: u_a8 - u_a13 - 960 y_a13_proc_2 >= -2413
 c447: u_a8 - u_a13 - 1006 y_a13_proc_0 >= -3619
 c448: u_a8 - u_a13 - 912 y_a13_proc_1 >= -2413
 c449: u_a14 - u_a8 - 822 y_a8_proc_0 >= -2413
 c450: u_a14 - u_a8 - 916 y_a8_proc_1 >= -3619
 c451: u_a8 - u_a14 - 945 y_a14_proc_0 >= 0
 c452: u_a8 - u_a14 - 1034 y_a14_proc_1 >= -1206
 c453: u_a10 - u_a9 - 1199 y_a9_proc_2 >= -2412
 c454: u_a10 - u_a9 - 863 y_a9_proc_1 >= -2412
 c455: u_a9 - u_a10 - 1150 y_a10_proc_2 >= -1
 c456: u_a9 - u_a10 - 605 y_a10_proc_1 >= -1
 c457: u_a11 - u_a9 - 1199 y_a9_proc_2 >= -1207
 c458: u_a11 - u_a9 - 756 y_a9_proc_0 >= -1
 c459: u_a9 - u_a11 - 437 y_a11_proc_2 >= -3618
 c460: u_a9 - u_a11 - 742 y_a11_proc_0 >= -2412
 c461: u_a12 - u_a9 - 1199 y_a9_proc_2 >= -2413
 c462: u_a12 - u_a9 - 756 y_a9_proc_0 >= -2413
 c463: u_a12 - u_a9 - 863 y_a9_proc_1 >= -1
 c464: u_a9 - u_a12 - 954 y_a12_proc_2 >= -2412
 c465: u_a9 - u_a12 - 951 y_a12_proc_0 >= -2412
 c466: u_a9 - u_a12 - 336 y_a12_proc_1 >= 0
 c467: u_a13 - u_a9 - 1199 y_a9_proc_2 >= -2412
 c468: u_a13 - u_a9 - 756 y_a9_proc_0 >= -2412
 c469: u_a13 - u_a9 - 863 y_a9_proc_1 >= 0
 c470: u_a9 - u_a13 - 960 y_a13_proc_2 >= -2413
 c471: u_a9 - u_a13 - 1006 y_a13_proc_0 >= -2413
 c472: u_a9 - u_a13 - 912 y_a13_proc_1 >= -1
 c473: u_a14 - u_a9 - 756 y_a9_proc_0 >= -2413
 c474: u_a14 - u_a9 - 863 y_a9_proc_1 >= -2413
 c475: u_a9 - u_a14 - 945 y_a14_proc_0 >= 0
 c476: u_a9 - u_a14 - 1034 y_a14_proc_1 >= 0
 c477: u_a11 - u_a10 - 1150 y_a10_proc_2 >= -2413
 c478: u_a10 - u_a11 - 437 y_a11_proc_2 >= 0
 c479: u_a12 - u_a10 - 1150 y_a10_proc_2 >= -1055
 c480: u_a12 - u_a10 - 605 y_a10_proc_1 >= -1055
 c481: u_a10 - u_a12 - 954 y_a12_proc_2 >= -1358
 c482: u_a10 - u_a12 - 336 y_a12_proc_1 >= -1358
 c483: u_a13 - u_a10 - 1150 y_a10_proc_2 >= -144
 c484: u_a13 - u_a10 - 605 y_a10_proc_1 >= -144
 c485: u_a10 - u_a13 - 960 y_a13_proc_2 >= -2269
 c486: u_a10 - u_a13 - 912 y_a13_proc_1 >= -2269
 c487: u_a14 - u_a10 - 605 y_a10_proc_1 >= -4825
 c488: u_a10 - u_a14 - 1034 y_a14_proc_1 >= 0
 c489: u_a12 - u_a11 - 437 y_a11_proc_2 >= -3618
 c490: u_a12 - u_a11 - 742 y_a11_proc_0 >= -2412
 c491: u_a11 - u_a12 - 954 y_a12_proc_2 >= -1207
 c492: u_a11 - u_a12 - 951 y_a12_proc_0 >= -1
 c493: u_a13 - u_a11 - 437 y_a11_proc_2 >= -3618
 c494: u_a13 - u_a11 - 742 y_a11_proc_0 >= -2412
 c495: u_a11 - u_a13 - 960 y_a13_proc_2 >= -1207
 c496: u_a11 - u_a13 - 1006 y_a13_proc_0 >= -1
 c497: u_a14 - u_a11 - 742 y_a11_proc_0 >= -1
 c498: u_a11 - u_a14 - 945 y_a14_proc_0 >= 0
 c499: u_a13 - u_a12 - 954 y_a12_proc_2 >= -2412
 c500: u_a13 - u_a12 - 951 y_a12_proc_0 >= -2412
 c501: u_a13 - u_a12 - 336 y_a12_proc_1 >= 0
 c502: u_a12 - u_a13 - 960 y_a13_proc_2 >= -2413
 c503: u_a12 - u_a13 - 1006 y_a13_proc_0 >= -2413
 c504: u_a12 - u_a13 - 912 y_a13_proc_1 >= -1
 c505: u_a14 - u_a12 - 951 y_a12_proc_0 >= -2413
 c506: u_a14 - u_a12 - 336 y_a12_proc_1 >= -2413
 c507: u_a12 - u_a14 - 945 y_a14_proc_0 >= 0
 c508: u_a12 - u_a14 - 1034 y_a14_proc_1 >= 0
 c509: u_a14 - u_a13 - 1006 y_a13_proc_0 >= -2413
 c510: u_a14 - u_a13 - 912 y_a13_proc_1 >= -2413
 c511: u_a13 - u_a14 - 945 y_a14_proc_0 >= 0
 c512: u_a13 - u_a14 - 1034 y_a14_proc_1 >= 0

Bounds
End
